\* Problem: Unknown *\

Maximize
 obj: + xp_0_0 + xp_0_1 + xp_0_2 + xp_0_3 + xp_0_4 + xp_0_5 + xp_0_6
 + xp_1_0 + xp_1_1 + xp_2_0 + xp_2_1 + xp_2_2 + xp_2_3 + xp_2_4 + xp_3_0
 + xp_3_1 + xp_3_2 + xp_3_3 + xp_4_0 + xp_4_1 + xp_5_0 + xp_5_1 + xp_6_0
 + xp_6_1 + xp_6_2 + xp_6_3 + xp_7_0 + xp_7_1 + xp_8_0 + xp_8_1 + xp_9_0
 + xp_10_0 + xp_10_1 + xp_11_0 + xp_11_1 + xp_11_2 + xp_11_3 + xp_12_0
 + xp_13_0 + xp_13_1 + xp_14_0 + xp_14_1 + xp_14_2 + xp_15_0 + xp_16_0
 + xp_17_0 + xp_17_1 + xp_17_2 + xp_17_3 + xp_17_4 + xp_18_0 + xp_18_1
 + xp_18_2 + xp_18_3 + xp_18_4 + xp_18_5 + xp_19_0 + xp_19_1 + xp_19_2
 + xp_19_3 + xp_19_4 + xp_19_5 + xp_20_0 + xp_20_1 + xp_20_2 + xp_20_3
 + xp_21_0 + xp_21_1 + xp_21_2 + xp_21_3 + xp_22_0 + xp_22_1 + xp_22_2
 + xp_22_3 + xp_22_4 + xp_22_5 + xp_22_6 + xp_23_0 + xp_23_1 + xp_23_2
 + xp_23_3

Subject To
 r_1: 0 xp_0_0 <= 25.8704453441296
 r_2: + xp_22_3 + xp_18_1 + xp_14_2 + xp_2_2 <= 25.6427184466019
 r_3: + xp_23_2 + xp_22_6 + xp_21_3 + xp_18_5 + xp_18_3 + xp_6_2
 <= 26.3893805309735
 r_4: + xp_18_2 + xp_15_0 <= 27.1553784860558
 r_5: + xp_18_0 <= 25.4328358208955
 r_6: + xp_19_3 + xp_18_4 <= 26.0136785539814
 r_7: + xp_20_3 <= 25.8704453441296
 r_8: + xp_22_2 + xp_11_3 + xp_6_3 + xp_5_1 + xp_3_3 + xp_3_2 + xp_2_1
 <= 25.6427184466019
 r_9: + xp_17_4 + xp_11_1 + xp_6_1 + xp_3_1 <= 26.3893805309735
 r_10: + xp_3_0 <= 27.1553784860558
 r_11: + xp_18_5 + xp_18_4 + xp_11_2 <= 25.4328358208955
 r_12: + xp_11_0 <= 26.0136785539814
 r_13: 0 xp_0_0 <= 27.3778920308483
 r_14: + xp_19_5 + xp_14_0 + xp_4_1 + xp_0_5 + xp_0_1
 <= 25.6427184466019
 r_15: + xp_21_0 <= 26.3893805309735
 r_16: + xp_22_1 + xp_21_2 + xp_19_4 + xp_0_3 + xp_0_2
 <= 26.7924528301887
 r_17: + xp_0_0 <= 25.4328358208955
 r_18: + xp_21_3 + xp_19_3 + xp_14_2 + xp_4_0 <= 25.8704453441296
 r_19: + xp_19_0 <= 25.8704453441296
 r_20: + xp_21_1 + xp_19_2 + xp_19_1 + xp_14_1 + xp_0_6 + xp_0_4
 <= 27.3778920308483
 r_21: + xp_20_1 <= 25.6427184466019
 r_22: + xp_7_1 <= 26.3893805309735
 r_23: + xp_22_5 + xp_22_3 + xp_22_2 + xp_3_3 <= 26.7924528301887
 r_24: + xp_23_3 + xp_6_3 + xp_3_2 + xp_0_5 + xp_0_4 <= 26.0949464012251
 r_25: 0 xp_0_0 <= 27.3778920308483
 r_26: + xp_18_1 + xp_0_6 + xp_0_1 <= 25.4328358208955
 r_27: + xp_11_3 + xp_4_1 <= 25.6427184466019
 r_28: + xp_19_5 + xp_19_1 + xp_10_1 <= 25.6427184466019
 r_29: + xp_20_2 <= 26.3893805309735
 r_30: + xp_2_0 <= 26.3893805309735
 r_31: + xp_23_2 + xp_22_6 + xp_18_3 + xp_17_4 + xp_6_2 + xp_6_1
 + xp_3_1 + xp_2_4 <= 26.0949464012251
 r_32: + xp_2_3 <= 27.3778920308483
 r_33: + xp_11_1 + xp_2_2 <= 26.3893805309735
 r_34: + xp_18_5 + xp_2_1 <= 26.3893805309735
 r_35: 0 xp_0_0 <= 26.7924528301887
 r_36: + xp_9_0 <= 26.7924528301887
 r_37: + xp_21_2 + xp_13_1 + xp_8_1 + xp_0_3 <= 26.0949464012251
 r_38: + xp_1_1 <= 28.7484662576687
 r_39: + xp_19_4 + xp_17_1 + xp_3_3 <= 27.1553784860558
 r_40: + xp_0_2 <= 25.4328358208955
 r_41: + xp_12_0 + xp_2_4 <= 26.0949464012251
 r_42: + xp_21_2 <= 26.0949464012251
 r_43: + xp_16_0 <= 26.0949464012251
 r_44: + xp_23_3 + xp_23_2 + xp_23_1 + xp_22_6 <= 28.7484662576687
 r_45: + xp_17_4 + xp_17_3 + xp_3_2 + xp_3_1 <= 27.1553784860558
 r_46: + xp_18_3 + xp_0_5 + xp_0_4 + xp_0_3 <= 25.4328358208955
 r_47: + xp_22_6 + xp_22_4 + xp_13_1 <= 28.7484662576687
 r_48: + xp_13_0 <= 28.7484662576687
 r_49: + xp_17_2 <= 27.1553784860558
 r_50: 0 xp_0_0 <= 25.4328358208955
 r_51: + xp_8_1 + xp_1_1 <= 27.1553784860558
 r_52: + xp_8_0 <= 27.1553784860558
 r_53: + xp_1_0 <= 27.1553784860558
 r_54: + xp_18_2 <= 25.4328358208955
 r_55: 0 xp_0_0 <= 27.1553784860558
 r_56: + xp_19_4 <= 27.1553784860558
 r_57: + xp_22_1 <= 25.4328358208955
 r_58: + xp_23_3 + xp_22_5 + xp_5_0 <= 25.4328358208955
 r_59: + xp_22_0 + xp_17_1 <= 25.4328358208955
 r_60: + xp_23_1 + xp_17_3 + xp_6_0 <= 25.4328358208955
 r_61: + xp_23_0 + xp_22_4 + xp_17_2 <= 25.4328358208955
 r_62: + xp_17_0 <= 25.4328358208955
 r_63: + xp_23_2 + xp_22_6 + xp_22_3 + xp_11_2 + xp_6_2
 <= 25.4328358208955
 r_64: + xp_22_2 + xp_17_4 + xp_6_3 + xp_6_1 + xp_5_1
 <= 25.4328358208955
 r_65: + xp_20_1 + xp_19_1 + xp_14_1 + xp_10_1 + xp_7_1 + xp_2_3
 + xp_0_6 + xp_0_4 <= 27.3778920308483
 r_66: + xp_21_1 + xp_20_2 + xp_7_0 <= 27.3778920308483
 r_67: + xp_20_3 + xp_19_2 + xp_10_0 <= 27.3778920308483
 r_68: + xp_20_0 <= 27.3778920308483

Bounds
 0 <= xp_0_0 <= 28.0114506282956
 0 <= xp_0_1 <= 8.7857606388465
 0 <= xp_0_2 <= 15.0497182492081
 0 <= xp_0_3 <= 3.00994364984162
 0 <= xp_0_4 <= 1.84391555944217
 0 <= xp_0_5 <= 3.00994364984162
 0 <= xp_0_6 <= 2.76587333916326
 0 <= xp_1_0 <= 19.4335506780199
 0 <= xp_1_1 <= 15.5468405424159
 0 <= xp_2_0 <= 22.7146721910504
 0 <= xp_2_1 <= 2.46759996323856
 0 <= xp_2_2 <= 6.84242062076275
 0 <= xp_2_3 <= 0.822533321079518
 0 <= xp_2_4 <= 1.64506664215904
 0 <= xp_3_0 <= 25.7336516917288
 0 <= xp_3_1 <= 4.11267864517219
 0 <= xp_3_2 <= 1.65410249299586
 0 <= xp_3_3 <= 0.551367497665287
 0 <= xp_4_0 <= 23.1394835980144
 0 <= xp_4_1 <= 2.8924354497518
 0 <= xp_5_0 <= 20.2470481482626
 0 <= xp_5_1 <= 5.7848708995036
 0 <= xp_6_0 <= 15.6191514286597
 0 <= xp_6_1 <= 2.60319190477662
 0 <= xp_6_2 <= 2.60319190477662
 0 <= xp_6_3 <= 2.60319190477662
 0 <= xp_7_0 <= 17.4630790278765
 0 <= xp_7_1 <= 4.98945115082186
 0 <= xp_8_0 <= 17.9330997884612
 0 <= xp_8_1 <= 2.24163747355765
 0 <= xp_9_0 <= 18.710441815582
 0 <= xp_10_0 <= 14.5525658565637
 0 <= xp_10_1 <= 4.15787595901821
 0 <= xp_11_0 <= 27.0894928485746
 0 <= xp_11_1 <= 14.2813879933749
 0 <= xp_11_2 <= 8.26150069369168
 0 <= xp_11_3 <= 9.59023429802696
 0 <= xp_12_0 <= 17.5715453572422
 0 <= xp_13_0 <= 13.2871253472973
 0 <= xp_13_1 <= 3.79632152779924
 0 <= xp_14_0 <= 10.8466329365693
 0 <= xp_14_1 <= 3.61554431218975
 0 <= xp_14_2 <= 1.80777215609488
 0 <= xp_15_0 <= 16.1072499108053
 0 <= xp_16_0 <= 15.4564519346112
 0 <= xp_17_0 <= 27.1165943811977
 0 <= xp_17_1 <= 12.0668761319896
 0 <= xp_17_2 <= 2.01566294410214
 0 <= xp_17_3 <= 2.01566294410214
 0 <= xp_17_4 <= 2.01566294410214
 0 <= xp_18_0 <= 23.455852755162
 0 <= xp_18_1 <= 1.79873028537075
 0 <= xp_18_2 <= 4.80867393521237
 0 <= xp_18_3 <= 1.79873028537075
 0 <= xp_18_4 <= 8.40613450595387
 0 <= xp_18_5 <= 3.00994364984162
 0 <= xp_19_0 <= 28.8339899692625
 0 <= xp_19_1 <= 1.7444971206879
 0 <= xp_19_2 <= 6.97798848275162
 0 <= xp_19_3 <= 1.7444971206879
 0 <= xp_19_4 <= 1.7444971206879
 0 <= xp_19_5 <= 1.7444971206879
 0 <= xp_20_0 <= 27.3877662244993
 0 <= xp_20_1 <= 6.31816067560794
 0 <= xp_20_2 <= 4.96232553864948
 0 <= xp_20_3 <= 3.30821702576632
 0 <= xp_21_0 <= 30
 0 <= xp_21_1 <= 2.91050715142545
 0 <= xp_21_2 <= 5.8210143028509
 0 <= xp_21_3 <= 1.45525357571272
 0 <= xp_22_0 <= 14.1277363899378
 0 <= xp_22_1 <= 3.00994364984162
 0 <= xp_22_2 <= 2.54895272020647
 0 <= xp_22_3 <= 8.56884001988971
 0 <= xp_22_4 <= 3.00994364984162
 0 <= xp_22_5 <= 6.01988729968323
 0 <= xp_22_6 <= 1.27447636010324
 0 <= xp_23_0 <= 24.893034629201
 0 <= xp_23_1 <= 9.84331637999295
 0 <= xp_23_2 <= 2.54895272020647
 0 <= xp_23_3 <= 1.27447636010324

End
